NAME : a280
COMMENT : Tour length 3610
TYPE : TOUR
DIMENSION : 280
TOUR_SECTION
1
280
2
242
243
245
246
231
238
239
240
241
244
247
250
251
230
249
256
255
252
209
208
253
254
257
258
259
260
5
6
9
7
8
10
11
12
13
14
24
23
25
22
26
27
28
29
32
31
30
125
126
127
128
129
131
130
21
20
19
132
133
18
17
16
271
272
273
274
275
276
277
4
278
279
3
248
229
228
227
226
225
224
223
222
219
218
217
220
221
216
213
212
207
210
211
214
215
205
204
203
202
200
144
143
142
147
146
145
199
198
197
194
195
196
201
193
192
191
190
189
188
187
185
184
183
182
181
176
177
151
152
156
153
155
154
122
121
120
119
157
158
159
160
175
161
162
163
164
165
166
167
168
169
101
100
99
98
93
94
95
96
97
92
91
90
89
109
108
104
105
103
102
170
171
172
173
106
107
174
110
111
114
113
87
84
85
65
64
63
62
118
117
115
116
86
66
67
70
71
72
73
74
75
76
77
78
79
80
81
82
83
88
112
61
60
43
42
41
40
39
38
37
36
35
34
33
124
123
178
150
149
139
138
137
267
266
140
141
148
265
264
263
262
261
270
134
135
136
268
269
15
206
232
233
234
235
236
237
179
180
186
59
44
45
56
57
58
68
69
55
54
53
52
51
50
49
48
47
46
1
-1
EOF